52
10
0 12 13 14 17 18 19 20 21 25 27 28 29 31 32 33 34 36 37 40 42 46 48 50 51
1 12 13 15 16 17 20 27 28 29 31 34 37 41 42 43 48 49 50
2 13 17 18 19 27 28 29 32 33 34 36 37 41 43 47
3 11 12 13 15 17 19 20 24 25 29 31 33 34 36 38 40 42 45 46 48 49 50 51
4 12 13 15 16 22 25 31 32 33 34 35 37 43 48 50 51
5 10 13 15 16 17 18 19 24 25 27 28 33 35 36 39 40 41 44 46 49 50 51
6 12 14 19 28 33 35 36 37 42 44 49 51
7 10 11 13 15 17 23 27 28 30 31 36 38 39 43 46 47 48 50
8 22 26 29 35 37 40 49
9 10 24 26 30 41 51
